20
1 62997 44035
2 5784 17117
3 85291 11743
4 65051 3701
5 36086 25412
6 3779 42908
7 79277 61473
8 10397 93992
9 30583 95561
10 85727 67362
11 64949 16662
12 76555 70832
13 2448 20239
14 23104 27222
15 82006 89113
16 64319 90999
17 49078 99946
18 52282 79198
19 48450 40422
20 54023 27864